NAME : P = NP
TYPE : TSP
DIMENSION : 37
EDGE_WEIGHT_TYPE : EUC_2D
NODE_COORD_SECTION
0 125 284
1 101 558
2 890 89
3 352 12
4 659 530
5 89 331
6 22 211
7 206 619
8 4 24
9 353 564
10 608 42
11 785 3
12 142 772
13 354 70
14 5 674
15 414 161
16 53 18
17 238 360
18 7 130
19 48 119
20 24 400
21 20 48
22 7 401
23 308 316
24 158 88
25 28 289
26 30 448
27 11 5
28 556 170
29 506 291
30 90 278
31 18 795
32 668 496
33 3 12
34 94 239
35 658 211
36 327 29